unsat
(:added-eqs                   447695
 :arith-eq-adapter            1857
 :arith-bound-propagations-lp 698
 :arith-conflicts             95
 :arith-diseq                 12815
 :arith-fixed-eqs             23130
 :arith-lower                 27667
 :arith-make-feasible         11590
 :arith-max-columns           1078
 :arith-max-rows              533
 :arith-offset-eqs            11106
 :arith-upper                 35463
 :binary-propagations         3262081
 :conflicts                   6614
 :decisions                   422573
 :del-clause                  6037
 :elim-unconstrained          4
 :max-memory                  39.50
 :memory                      24.57
 :minimized-lits              55325
 :mk-bool-var                 17096
 :mk-clause                   14750
 :mk-clause-binary            56190
 :num-allocs                  172249960
 :num-checks                  1
 :propagations                4115835
 :restarts                    50
 :rlimit-count                15845237
 :time                        3.15
 :total-time                  3.21)
